# DGP instance in .dat format for dgp.mod
# this graph is a DGP encoding of a random instance

param : E : c I :=
  2 4  3.000 0
  3 4  4.000 0
  1 5  6.000 0
  2 3  10.000 0
  4 5  7.000 0
  2 5  9.000 0
  1 3  2.000 0
  3 5  1.000 0
;
